
Gurobi 6.5.2 (linux64) logging started Tue Sep  6 10:06:18 2016

Optimize a model with 41 rows, 115 columns and 267 nonzeros
Coefficient statistics:
  Matrix range    [1e+00, 2e+00]
  Objective range [1e+00, 1e+02]
  Bounds range    [1e+00, 1e+00]
  RHS range       [1e+00, 1e+00]
Found heuristic solution: objective 806
Presolve removed 13 rows and 4 columns
Presolve time: 0.00s
Presolved: 28 rows, 111 columns, 227 nonzeros
Variable types: 0 continuous, 111 integer (111 binary)

Root relaxation: objective 3.103333e+02, 25 iterations, 0.00 seconds

    Nodes    |    Current Node    |     Objective Bounds      |     Work
 Expl Unexpl |  Obj  Depth IntInf | Incumbent    BestBd   Gap | It/Node Time

     0     0  310.33333    0   13  806.00000  310.33333  61.5%     -    0s
H    0     0                     408.0000000  310.33333  23.9%     -    0s
     0     0  344.50000    0   12  408.00000  344.50000  15.6%     -    0s
     0     0  345.42857    0    8  408.00000  345.42857  15.3%     -    0s
     0     0  363.66667    0   23  408.00000  363.66667  10.9%     -    0s
     0     0  364.00000    0   20  408.00000  364.00000  10.8%     -    0s
     0     0  366.37500    0   23  408.00000  366.37500  10.2%     -    0s
     0     0  366.72222    0   24  408.00000  366.72222  10.1%     -    0s
     0     0  370.00000    0   29  408.00000  370.00000  9.31%     -    0s
H    0     0                     396.0000000  370.00000  6.57%     -    0s
     0     0  371.00000    0   26  396.00000  371.00000  6.31%     -    0s
     0     0  371.00000    0   12  396.00000  371.00000  6.31%     -    0s
     0     0  371.00000    0   19  396.00000  371.00000  6.31%     -    0s
     0     0  371.00000    0   25  396.00000  371.00000  6.31%     -    0s
     0     0  371.00000    0   25  396.00000  371.00000  6.31%     -    0s
     0     0  371.66667    0   15  396.00000  371.66667  6.14%     -    0s
     0     0  371.78788    0   31  396.00000  371.78788  6.11%     -    0s
H    0     0                     382.0000000  371.78788  2.67%     -    0s
     0     0  371.78788    0   31  382.00000  371.78788  2.67%     -    0s

Cutting planes:
  Gomory: 4
  Cover: 17
  MIR: 2
  Zero half: 1
  Mod-K: 1

Explored 0 nodes (123 simplex iterations) in 0.02 seconds
Thread count was 8 (of 8 available processors)

Optimal solution found (tolerance 1.00e-04)
Best objective 3.820000000000e+02, best bound 3.820000000000e+02, gap 0.0%
